param set_len = 28;
param target_sum = 3201599;
param values := [0] 16053 [1] 97544 [2] 385005 [3] 124067 [4] 344087 [5] 260928 [6] 289135 [7] 231584 [8] 395999 [9] 335283 [10] 178676 [11] 444912 [12] 285386 [13] 358438 [14] 123101 [15] 161233 [16] 127814 [17] 96497 [18] 481565 [19] 267237 [20] 1296 [21] 25848 [22] 388489 [23] 362362 [24] 175816 [25] 228931 [26] 402371 [27] 82321 ;
